
Gurobi 11.0.3 (linux64) logging started Fri Nov 22 03:40:40 2024

Set parameter LogFile to value "/home/yihong/Coding/OR_SUC/SUC_results_bigM100000_thread4/case24_ieee_rts_theta0.5_epsilon0.05_gurobi_seed800000_num_gen100_N_WDR100_load_scaling_factor1_proposed_T28quadra_cost.txt"
Set parameter TimeLimit to value 3600
Gurobi Optimizer version 11.0.3 build v11.0.3rc0 (linux64 - "Ubuntu 20.04.6 LTS")

CPU model: AMD EPYC 7532 32-Core Processor, instruction set [SSE2|AVX|AVX2]
Thread count: 64 physical cores, 128 logical processors, using up to 4 threads

Optimize a model with 67234 rows, 34821 columns and 1535514 nonzeros
Model fingerprint: 0x35c34058
Model has 2800 quadratic constraints
Variable types: 32021 continuous, 2800 integer (2800 binary)
Coefficient statistics:
  Matrix range     [3e-04, 2e+03]
  QMatrix range    [2e-03, 8e-03]
  QLMatrix range   [4e-02, 6e+01]
  Objective range  [1e+00, 1e+00]
  Bounds range     [1e+00, 1e+00]
  RHS range        [1e+00, 9e+03]
Presolve removed 54925 rows and 14745 columns
Presolve time: 0.49s
Presolved: 12309 rows, 20076 columns, 68955 nonzeros
Presolved model has 2800 quadratic constraint(s)
Variable types: 17276 continuous, 2800 integer (2800 binary)

Root relaxation: objective 6.097103e+04, 9907 iterations, 0.31 seconds (0.45 work units)

    Nodes    |    Current Node    |     Objective Bounds      |     Work
 Expl Unexpl |  Obj  Depth IntInf | Incumbent    BestBd   Gap | It/Node Time

     0     0 60971.0259    0   28          - 60971.0259      -     -    0s
     0     0 390955.468    0  812          - 390955.468      -     -    2s
     0     0 465932.995    0  826          - 465932.995      -     -    2s
     0     0 792854.572    0  806          - 792854.572      -     -    3s
     0     0 793179.252    0  630          - 793179.252      -     -    3s
     0     0 793480.815    0  432          - 793480.815      -     -    3s
     0     0 793482.508    0  432          - 793482.508      -     -    3s
     0     0 793482.706    0  432          - 793482.706      -     -    4s
     0     0 793484.269    0  432          - 793484.269      -     -    4s
     0     0 793484.799    0  432          - 793484.799      -     -    4s
     0     0 793485.253    0  432          - 793485.253      -     -    5s
     0     2 793485.253    0  432          - 793485.253      -     -    5s
H 1024   442                    793810.33292 793495.374  0.04%  17.2    9s
* 1024   442             270    793810.33292 793495.374  0.04%  17.2    9s

Cutting planes:
  Gomory: 5
  Implied bound: 485
  MIR: 29
  Flow cover: 127

Explored 1172 nodes (47957 simplex iterations) in 9.70 seconds (11.06 work units)
Thread count was 4 (of 128 available processors)

Solution count 2: 793810 793810 

Optimal solution found (tolerance 1.00e-03)
Warning: max constraint violation (6.5769e-07) exceeds tolerance
Best objective 7.938103329290e+05, best bound 7.935050257927e+05, gap 0.0385%
